benchmarks/VRPTW/TSPTW/solution/n80w40.003.txt.solution
1 53 20 43 55 46 58 36 11 72 57 54 80 70 29 68 41 65 28 5 13 12 45 19 33 25 59 62 40 74 50 18 39 30 52 35 9 8 6 73 34 15 32 47 77 22 21 63 4 56 7 66 60 17 23 75 79 24 16 69 42 48 44 14 76 49 31 64 26 3 10 37 2 51 67 71 78 27 81 61 38 
674
